3 48 1 10
15 12 4 10 13 7 15 16 4 13 12 20 12 4 20 14 17 6 9 14 14 5 9 17 5 8 5 6 4 10 10 8 11 12 1 15 1 19 7 19 9 8 7 2 1 10 1 2 
3.27 5.22 1.93 0.34 2.78 6.62 6.55 5.83 0.06 3.24 5.6 6.34 5.94 5.32 0.61 3.81 4.36 6.69 1.22 0.13 1.52 7.02 1.95 0.28 4.43 6.56 0.01 3.34 3.41 5.15 2.52 4.28 5.76 6.43 5.49 6.8 6.27 0.61 7.43 1.07 3.95 2.7 0.14 2.09 7.36 3.44 0.62 5.65 
4 4 4 4 4 4 4 4 4 4 4 4 4 4 4 4 4 4 4 4 4 4 4 4 4 4 4 4 4 4 4 4 4 4 4 4 4 4 4 4 4 4 4 4 4 4 4 4 
7.34 4.78 6.32 5.66 1.54 5.14 2.96 2.53 4.56 2.72 3.35 2.08 6.2 5.68 0.31 2.23 4.4 4.72 1.02 3.86 3.36 0.81 6.1 3.33 6.63 2 1.11 2.92 5.64 7.86 0.57 6.96 6.71 1.76 3.03 7.78 1.54 2.86 4.89 4.98 0.27 5.6 6.74 6.67 7.44 0.07 7.82 2.14 
1 1 1 1 1 1 1 1 1 1 1 1 1 1 1 1 1 1 1 1 1 1 1 1 1 1 1 1 1 1 1 1 1 1 1 1 1 1 1 1 1 1 1 1 1 1 1 1 
1 1 1 1 1 1 1 1 1 1 1 1 1 1 1 1 1 1 1 1 1 1 1 1 1 1 1 1 1 1 1 1 1 1 1 1 1 1 1 1 1 1 1 1 1 1 1 1 
1 1 1 1 1 1 1 1 1 1 1 1 1 1 1 1 1 1 1 1 1 1 1 1 1 1 1 1 1 1 1 1 1 1 1 1 1 1 1 1 1 1 1 1 1 1 1 1 
0.01 0.01 0.01 0.01 0.01 0.01 0.01 0.01 0.01 0.01 0.01 0.01 0.01 0.01 0.01 0.01 0.01 0.01 0.01 0.01 0.01 0.01 0.01 0.01 0.01 0.01 0.01 0.01 0.01 0.01 0.01 0.01 0.01 0.01 0.01 0.01 0.01 0.01 0.01 0.01 0.01 0.01 0.01 0.01 0.01 0.01 0.01 0.01 
0.02 0.02 0.02 0.02 0.02 0.02 0.02 0.02 0.02 0.02 0.02 0.02 0.02 0.02 0.02 0.02 0.02 0.02 0.02 0.02 0.02 0.02 0.02 0.02 0.02 0.02 0.02 0.02 0.02 0.02 0.02 0.02 0.02 0.02 0.02 0.02 0.02 0.02 0.02 0.02 0.02 0.02 0.02 0.02 0.02 0.02 0.02 0.02 
1 1 1 1 1 1 1 1 1 1 1 1 1 1 1 1 1 1 1 1 1 1 1 1 1 1 1 1 1 1 1 1 1 1 1 1 1 1 1 1 1 1 1 1 1 1 1 1 
